src/asp/benchmarks/medium9.lp
citta(gualdo_tardino).
citta(bastia_umbra).
citta(assisi).
citta(castiglione_del_lago).
citta(terni).
citta(marsciano).

richiesta(gualdo_tardino, strade, 16).
richiesta(gualdo_tardino, fiumi, 29).
richiesta(gualdo_tardino, scuole, 1).
richiesta(gualdo_tardino, parchi, 153).
richiesta(gualdo_tardino, energia, 116).

richiesta(bastia_umbra, strade, 46).
richiesta(bastia_umbra, fiumi, 54).
richiesta(bastia_umbra, scuole, 3).
richiesta(bastia_umbra, parchi, 5).
richiesta(bastia_umbra, energia, 56).

richiesta(assisi, strade, 16).
richiesta(assisi, fiumi, 1).
richiesta(assisi, scuole, 6).
richiesta(assisi, parchi, 17).
richiesta(assisi, energia, 33).

richiesta(castiglione_del_lago, strade, 39).
richiesta(castiglione_del_lago, fiumi, 3).
richiesta(castiglione_del_lago, scuole, 11).
richiesta(castiglione_del_lago, parchi, 35).
richiesta(castiglione_del_lago, energia, 28).

richiesta(terni, strade, 53).
richiesta(terni, fiumi, 55).
richiesta(terni, scuole, 14).
richiesta(terni, parchi, 95).
richiesta(terni, energia, 28).

richiesta(marsciano, strade, 12).
richiesta(marsciano, fiumi, 27).
richiesta(marsciano, scuole, 2).
richiesta(marsciano, parchi, 30).
richiesta(marsciano, energia, 3).

