src/minizinc/benchmarks/medium9.dzn
COMUNI = {
	terni,
	gubbio,
	assisi,
	marsciano,
	todi,
	umbertide,
	narni,
	amelia,
};

NUMERO_COMUNI = 8;

ABITANTI_PER_COMUNE = [106, 30, 27, 18, 15, 16, 17, 11];

STRADE_TRA_COMUNI = [|
	false, false, false, false, false, false, true, false |
	false, false, false, false, false, true, false, false |
	false, false, false, false, false, false, false, false |
	false, false, false, false, true, false, false, false |
	false, false, false, true, false, false, false, true |
	false, true, false, false, false, false, false, false |
	true, false, false, false, false, false, false, true |
	false, false, false, false, true, false, true, false |
|];

RICHIESTE = [|
	9, 37, 27, 0, 9 |
	7, 21, 49, 15, 18 |
	5, 11, 0, 3, 17 |
	30, 12, 59, 34, 15 |
	14, 17, 67, 36, 2 |
	4, 11, 59, 24, 31 |
	25, 31, 5, 43, 78 |
	61, 14, 12, 46, 22 |
|];
